rand_21
0 295 278 283 206 84 268 150 248 236 113 75 43 170 223 27 65 229 105 194 296 254 227 242 226 80 276 196 69 251 56 271 8 252 20 198 48 279 87 137 193 71 144 233 74 47 118 249 179 267 259 92 158 122 82 192 117 50 171 143 26 68 129 3 21 89 269 246 15 287 218 243 146 282 201 235 40 99 67 78 225 195 214 28 41 114 189 205 93 210 224 101 3 232 73 221 16 237 164 36 166 202 94 17 79 58 125 96 222 45 234 238 197 86 12 115 162 263 274 240 204 177 121 132 286 231 90 148 184 178 289 29 119 262 14 53 25 185 83 183 63 102 290 39 245 301 199 91 12 186 297 138 288 154 24 112 18 76 108 275 46 247 51 30 152 211 123 149 182 127 77 134 135 244 31 175 213 160 10 270 44 62 35 294 57 260 81 72 200 298 208 111 151 265 64 55 280 285 168 70 130 42 215 258 255 159 250 98 1 219 13 61 188 85 33 97 207 284 190 212 0